100
150
100
99
99
99
98
97
96
95
95
95
94
93
93
93
92
92
91
88
88
88
88
87
86
86
85
85
85
85
84
82
82
81
81
81
78
78
77
77
76
76
75
72
72
72
71
71
70
68
68
67
66
64
64
63
63
63
63
61
60
60
57
56
56
55
55
55
53
53
52
52
51
51
50
49
48
48
47
45
45
43
42
40
39
38
38
37
37
37
37
36
34
34
33
33
33
32
31
26
25
21
